p cnf 1105
-20 -342
-21 -345
-22 -348
-23 -351
-24 -354
-25 -357
-26 -360
-27 -363
-28 -366
-29 -369
-30 -372
-31 -375
-32 -378
-33 -381
-34 -384
-35 -387
-36 -390
-37 -393
-38 -396
-39 397
-40 398
-41 399
-42 400
-43 401
-44 -21
-44 -22
21 22 44
-45 -23
-45 -24
23 24 45
-46 -25
-46 -26
25 26 46
-47 -27
-47 -28
27 28 47
-48 -29
-48 -30
29 30 48
-49 -31
-49 -32
31 32 49
-50 -33
-50 -34
33 34 50
-51 -35
-51 -36
35 36 51
-52 -37
-52 -38
37 38 52
-53 -39
-53 -40
39 40 53
-54 -41
-54 -42
41 42 54
-55 44
-55 45
-44 -45 55
-56 46
-56 47
-46 -47 56
-57 48
-57 49
-48 -49 57
-58 50
-58 51
-50 -51 58
-59 52
-59 53
-52 -53 59
-60 -43
-60 54
43 -54 60
-61 55
-61 56
-55 -56 61
-62 57
-62 58
-57 -58 62
-63 59
-63 60
-59 -60 63
-64 61
-64 62
-61 -62 64
-65 63
-65 64
-63 -64 65
-66 -20
-66 21
20 -21 66
-67 20
-67 -21
-20 21 67
-68 -66
-68 -67
66 67 68
-69 20
-69 21
-20 -21 69
-70 -20
-70 -68
20 68 70
-71 20
-71 68
-20 -68 71
-72 -70
-72 -71
70 71 72
-73 20
-73 -68
-20 68 73
-74 -69
-74 -73
69 73 74
-75 -21
-75 22
21 -22 75
-76 21
-76 -22
-21 22 76
-77 -75
-77 -76
75 76 77
-78 21
-78 22
-21 -22 78
-79 74
-79 -77
-74 77 79
-80 -74
-80 77
74 -77 80
-81 -79
-81 -80
79 80 81
-82 -74
-82 -77
74 77 82
-83 -78
-83 -82
78 82 83
-84 -22
-84 23
22 -23 84
-85 22
-85 -23
-22 23 85
-86 -84
-86 -85
84 85 86
-87 22
-87 23
-22 -23 87
-88 83
-88 -86
-83 86 88
-89 -83
-89 86
83 -86 89
-90 -88
-90 -89
88 89 90
-91 -83
-91 -86
83 86 91
-92 -87
-92 -91
87 91 92
-93 -23
-93 24
23 -24 93
-94 23
-94 -24
-23 24 94
-95 -93
-95 -94
93 94 95
-96 23
-96 24
-23 -24 96
-97 92
-97 -95
-92 95 97
-98 -92
-98 95
92 -95 98
-99 -97
-99 -98
97 98 99
-100 -92
-100 -95
92 95 100
-101 -96
-101 -100
96 100 101
-102 -24
-102 25
24 -25 102
-103 24
-103 -25
-24 25 103
-104 -102
-104 -103
102 103 104
-105 24
-105 25
-24 -25 105
-106 101
-106 -104
-101 104 106
-107 -101
-107 104
101 -104 107
-108 -106
-108 -107
106 107 108
-109 -101
-109 -104
101 104 109
-110 -105
-110 -109
105 109 110
-111 -25
-111 26
25 -26 111
-112 25
-112 -26
-25 26 112
-113 -111
-113 -112
111 112 113
-114 25
-114 26
-25 -26 114
-115 110
-115 -113
-110 113 115
-116 -110
-116 113
110 -113 116
-117 -115
-117 -116
115 116 117
-118 -110
-118 -113
110 113 118
-119 -114
-119 -118
114 118 119
-120 -26
-120 27
26 -27 120
-121 26
-121 -27
-26 27 121
-122 -120
-122 -121
120 121 122
-123 26
-123 27
-26 -27 123
-124 119
-124 -122
-119 122 124
-125 -119
-125 122
119 -122 125
-126 -124
-126 -125
124 125 126
-127 -119
-127 -122
119 122 127
-128 -123
-128 -127
123 127 128
-129 -27
-129 28
27 -28 129
-130 27
-130 -28
-27 28 130
-131 -129
-131 -130
129 130 131
-132 27
-132 28
-27 -28 132
-133 128
-133 -131
-128 131 133
-134 -128
-134 131
128 -131 134
-135 -133
-135 -134
133 134 135
-136 -128
-136 -131
128 131 136
-137 -132
-137 -136
132 136 137
-138 -28
-138 29
28 -29 138
-139 28
-139 -29
-28 29 139
-140 -138
-140 -139
138 139 140
-141 28
-141 29
-28 -29 141
-142 137
-142 -140
-137 140 142
-143 -137
-143 140
137 -140 143
-144 -142
-144 -143
142 143 144
-145 -137
-145 -140
137 140 145
-146 -141
-146 -145
141 145 146
-147 -29
-147 30
29 -30 147
-148 29
-148 -30
-29 30 148
-149 -147
-149 -148
147 148 149
-150 29
-150 30
-29 -30 150
-151 146
-151 -149
-146 149 151
-152 -146
-152 149
146 -149 152
-153 -151
-153 -152
151 152 153
-154 -146
-154 -149
146 149 154
-155 -150
-155 -154
150 154 155
-156 -30
-156 31
30 -31 156
-157 30
-157 -31
-30 31 157
-158 -156
-158 -157
156 157 158
-159 30
-159 31
-30 -31 159
-160 155
-160 -158
-155 158 160
-161 -155
-161 158
155 -158 161
-162 -160
-162 -161
160 161 162
-163 -155
-163 -158
155 158 163
-164 -159
-164 -163
159 163 164
-165 -31
-165 32
31 -32 165
-166 31
-166 -32
-31 32 166
-167 -165
-167 -166
165 166 167
-168 31
-168 32
-31 -32 168
-169 164
-169 -167
-164 167 169
-170 -164
-170 167
164 -167 170
-171 -169
-171 -170
169 170 171
-172 -164
-172 -167
164 167 172
-173 -168
-173 -172
168 172 173
-174 -32
-174 33
32 -33 174
-175 32
-175 -33
-32 33 175
-176 -174
-176 -175
174 175 176
-177 32
-177 33
-32 -33 177
-178 173
-178 -176
-173 176 178
-179 -173
-179 176
173 -176 179
-180 -178
-180 -179
178 179 180
-181 -173
-181 -176
173 176 181
-182 -177
-182 -181
177 181 182
-183 -33
-183 34
33 -34 183
-184 33
-184 -34
-33 34 184
-185 -183
-185 -184
183 184 185
-186 33
-186 34
-33 -34 186
-187 182
-187 -185
-182 185 187
-188 -182
-188 185
182 -185 188
-189 -187
-189 -188
187 188 189
-190 -182
-190 -185
182 185 190
-191 -186
-191 -190
186 190 191
-192 -34
-192 35
34 -35 192
-193 34
-193 -35
-34 35 193
-194 -192
-194 -193
192 193 194
-195 34
-195 35
-34 -35 195
-196 191
-196 -194
-191 194 196
-197 -191
-197 194
191 -194 197
-198 -196
-198 -197
196 197 198
-199 -191
-199 -194
191 194 199
-200 -195
-200 -199
195 199 200
-201 -35
-201 36
35 -36 201
-202 35
-202 -36
-35 36 202
-203 -201
-203 -202
201 202 203
-204 35
-204 36
-35 -36 204
-205 200
-205 -203
-200 203 205
-206 -200
-206 203
200 -203 206
-207 -205
-207 -206
205 206 207
-208 -200
-208 -203
200 203 208
-209 -204
-209 -208
204 208 209
-210 -36
-210 37
36 -37 210
-211 36
-211 -37
-36 37 211
-212 -210
-212 -211
210 211 212
-213 36
-213 37
-36 -37 213
-214 209
-214 -212
-209 212 214
-215 -209
-215 212
209 -212 215
-216 -214
-216 -215
214 215 216
-217 -209
-217 -212
209 212 217
-218 -213
-218 -217
213 217 218
-219 -37
-219 38
37 -38 219
-220 37
-220 -38
-37 38 220
-221 -219
-221 -220
219 220 221
-222 37
-222 38
-37 -38 222
-223 218
-223 -221
-218 221 223
-224 -218
-224 221
218 -221 224
-225 -223
-225 -224
223 224 225
-226 -218
-226 -221
218 221 226
-227 -222
-227 -226
222 226 227
-228 -38
-228 39
38 -39 228
-229 38
-229 -39
-38 39 229
-230 -228
-230 -229
228 229 230
-231 38
-231 39
-38 -39 231
-232 227
-232 -230
-227 230 232
-233 -227
-233 230
227 -230 233
-234 -232
-234 -233
232 233 234
-235 -227
-235 -230
227 230 235
-236 -231
-236 -235
231 235 236
-237 -39
-237 40
39 -40 237
-238 39
-238 -40
-39 40 238
-239 -237
-239 -238
237 238 239
-240 39
-240 40
-39 -40 240
-241 236
-241 -239
-236 239 241
-242 -236
-242 239
236 -239 242
-243 -241
-243 -242
241 242 243
-244 -236
-244 -239
236 239 244
-245 -240
-245 -244
240 244 245
-246 -40
-246 41
40 -41 246
-247 40
-247 -41
-40 41 247
-248 -246
-248 -247
246 247 248
-249 40
-249 41
-40 -41 249
-250 245
-250 -248
-245 248 250
-251 -245
-251 248
245 -248 251
-252 -250
-252 -251
250 251 252
-253 -245
-253 -248
245 248 253
-254 -249
-254 -253
249 253 254
-255 -41
-255 42
41 -42 255
-256 41
-256 -42
-41 42 256
-257 -255
-257 -256
255 256 257
-258 41
-258 42
-41 -42 258
-259 254
-259 -257
-254 257 259
-260 -254
-260 257
254 -257 260
-261 -259
-261 -260
259 260 261
-262 -254
-262 -257
254 257 262
-263 -258
-263 -262
258 262 263
-264 -42
-264 43
42 -43 264
-265 42
-265 -43
-42 43 265
-266 -264
-266 -265
264 265 266
-267 42
-267 43
-42 -43 267
-268 263
-268 -266
-263 266 268
-269 -263
-269 266
263 -266 269
-270 -268
-270 -269
268 269 270
-271 -263
-271 -266
263 266 271
-272 -267
-272 -271
267 271 272
-273 20
-273 -72
-20 72 273
-274 -20
-274 22
20 -22 274
-275 -273
-275 -274
273 274 275
-276 20
-276 -81
-20 81 276
-277 -20
-277 23
20 -23 277
-278 -276
-278 -277
276 277 278
-279 20
-279 -90
-20 90 279
-280 -20
-280 24
20 -24 280
-281 -279
-281 -280
279 280 281
-282 20
-282 -99
-20 99 282
-283 -20
-283 25
20 -25 283
-284 -282
-284 -283
282 283 284
-285 20
-285 -108
-20 108 285
-286 -20
-286 26
20 -26 286
-287 -285
-287 -286
285 286 287
-288 20
-288 -117
-20 117 288
-289 -20
-289 27
20 -27 289
-290 -288
-290 -289
288 289 290
-291 20
-291 -126
-20 126 291
-292 -20
-292 28
20 -28 292
-293 -291
-293 -292
291 292 293
-294 20
-294 -135
-20 135 294
-295 -20
-295 29
20 -29 295
-296 -294
-296 -295
294 295 296
-297 20
-297 -144
-20 144 297
-298 -20
-298 30
20 -30 298
-299 -297
-299 -298
297 298 299
-300 20
-300 -153
-20 153 300
-301 -20
-301 31
20 -31 301
-302 -300
-302 -301
300 301 302
-303 20
-303 -162
-20 162 303
-304 -20
-304 32
20 -32 304
-305 -303
-305 -304
303 304 305
-306 20
-306 -171
-20 171 306
-307 -20
-307 33
20 -33 307
-308 -306
-308 -307
306 307 308
-309 20
-309 -180
-20 180 309
-310 -20
-310 34
20 -34 310
-311 -309
-311 -310
309 310 311
-312 20
-312 -189
-20 189 312
-313 -20
-313 35
20 -35 313
-314 -312
-314 -313
312 313 314
-315 20
-315 -198
-20 198 315
-316 -20
-316 36
20 -36 316
-317 -315
-317 -316
315 316 317
-318 20
-318 -207
-20 207 318
-319 -20
-319 37
20 -37 319
-320 -318
-320 -319
318 319 320
-321 20
-321 -216
-20 216 321
-322 -20
-322 38
20 -38 322
-323 -321
-323 -322
321 322 323
-324 20
-324 -225
-20 225 324
-325 -20
-325 39
20 -39 325
-326 -324
-326 -325
324 325 326
-327 20
-327 -234
-20 234 327
-328 -20
-328 40
20 -40 328
-329 -327
-329 -328
327 328 329
-330 20
-330 -243
-20 243 330
-331 -20
-331 41
20 -41 331
-332 -330
-332 -331
330 331 332
-333 20
-333 -252
-20 252 333
-334 -20
-334 42
20 -42 334
-335 -333
-335 -334
333 334 335
-336 20
-336 -261
-20 261 336
-337 -20
-337 43
20 -43 337
-338 -336
-338 -337
336 337 338
-339 20
-339 -270
-20 270 339
-340 1
-340 65
-1 -65 340
-341 -65
-341 66
65 -66 341
-342 -340
-342 -341
340 341 342
-343 2
-343 65
-2 -65 343
-344 -65
-344 -275
65 275 344
-345 -343
-345 -344
343 344 345
-346 3
-346 65
-3 -65 346
-347 -65
-347 -278
65 278 347
-348 -346
-348 -347
346 347 348
-349 4
-349 65
-4 -65 349
-350 -65
-350 -281
65 281 350
-351 -349
-351 -350
349 350 351
-352 5
-352 65
-5 -65 352
-353 -65
-353 -284
65 284 353
-354 -352
-354 -353
352 353 354
-355 6
-355 65
-6 -65 355
-356 -65
-356 -287
65 287 356
-357 -355
-357 -356
355 356 357
-358 7
-358 65
-7 -65 358
-359 -65
-359 -290
65 290 359
-360 -358
-360 -359
358 359 360
-361 8
-361 65
-8 -65 361
-362 -65
-362 -293
65 293 362
-363 -361
-363 -362
361 362 363
-364 9
-364 65
-9 -65 364
-365 -65
-365 -296
65 296 365
-366 -364
-366 -365
364 365 366
-367 10
-367 65
-10 -65 367
-368 -65
-368 -299
65 299 368
-369 -367
-369 -368
367 368 369
-370 11
-370 65
-11 -65 370
-371 -65
-371 -302
65 302 371
-372 -370
-372 -371
370 371 372
-373 12
-373 65
-12 -65 373
-374 -65
-374 -305
65 305 374
-375 -373
-375 -374
373 374 375
-376 13
-376 65
-13 -65 376
-377 -65
-377 -308
65 308 377
-378 -376
-378 -377
376 377 378
-379 14
-379 65
-14 -65 379
-380 -65
-380 -311
65 311 380
-381 -379
-381 -380
379 380 381
-382 15
-382 65
-15 -65 382
-383 -65
-383 -314
65 314 383
-384 -382
-384 -383
382 383 384
-385 16
-385 65
-16 -65 385
-386 -65
-386 -317
65 317 386
-387 -385
-387 -386
385 386 387
-388 17
-388 65
-17 -65 388
-389 -65
-389 -320
65 320 389
-390 -388
-390 -389
388 389 390
-391 18
-391 65
-18 -65 391
-392 -65
-392 -323
65 323 392
-393 -391
-393 -392
391 392 393
-394 19
-394 65
-19 -65 394
-395 -65
-395 -326
65 326 395
-396 -394
-396 -395
394 395 396
-397 -65
-397 -329
65 329 397
-398 -65
-398 -332
65 332 398
-399 -65
-399 -335
65 335 399
-400 -65
-400 -338
65 338 400
-401 -65
-401 339
65 -339 401
-402 -43
-402 272
43 -272 402
-403 20
-403 -402
-20 402 403
403
